NAME          FUSRAN
ROWS
 G  N
 G  AM-N
 G  UR-N
 G  P
 G  K
 G  CA
 G  MG
 G  S
 G  B
 G  ZN
 G  DEN
 E  WT
 N  COST
 N  PRICE
COLUMNS
*234567890123456789012345678901234567890123456789012345678901
    I184600   N             0.180000   AM-N          0.180000   
    I184600   P             0.460000   DEN           0.016065   
    I184600   WT            1.000000   COST        183.000000   
    I184600   PRICE       228.750000   SCALE      2000.000000   
    I115200   N             0.110000   AM-N          0.110000   
    I115200   P             0.520000   DEN           0.015447   
    I115200   WT            1.000000   COST        183.000000   
    I115200   PRICE       228.750000   SCALE      2000.000000   
    I004600   P             0.460000   CA            0.190000   
    I004600   S             0.010000   DEN           0.014365   
    I004600   WT            1.000000   COST        143.000000   
    I004600   PRICE       178.750000   SCALE      2000.000000   
    I460000   N             0.460000   UR-N          0.460000   
    I460000   DEN           0.020918   WT            1.000000   
    I460000   COST        160.000000   PRICE       200.000000   
    I460000   SCALE      2000.000000   
    I210000   N             0.210000   AM-N          0.210000   
    I210000   S             0.240000   DEN           0.020491   
    I210000   WT            1.000000   COST        110.000000   
    I210000   PRICE       137.500000   SCALE      2000.000000   
    I000060   K             0.600000   DEN           0.015471   
    I000060   WT            1.000000   COST         90.000000   
    I000060   PRICE       112.500000   SCALE      2000.000000   
    I000022   K             0.220000   MG            0.110000   
    I000022   S             0.220000   DEN           0.010288   
    I000022   WT            1.000000   COST        110.000000   
    I000022   PRICE       137.500000   SCALE      2000.000000   
    I20S36Z   S             0.200000   ZN            0.360000   
    I20S36Z   DEN           0.013057   WT            1.000000   
    I20S36Z   COST        400.000000   PRICE       500.000000   
    I20S36Z   SCALE      2000.000000   
    I14B000   B             0.143000   DEN           0.021971   
    I14B000   WT            1.000000   COST        420.000000   
    I14B000   PRICE       525.000000   SCALE      2000.000000   
    I000000   DEN           0.011156   WT            1.000000   
    I000000   COST         28.000000   PRICE        35.000000   
    I000000   SCALE      2000.000000   
    PRODUCT   WT           -1.000000   COST          0.000000   
    PRODUCT   PRICE         0.000000   SCALE         1.000000   
*234567890123456789012345678901234567890123456789012345678901
RHS
RANGES
ENDATA
